NAME : mr30
COMMENT : 30-city problem (DISC)
TYPE : TSP
DIMENSION : 30
EDGE_WEIGHT_TYPE : EUC_2D
NODE_COORD_SECTION
1 65 84
2 39 37
3 67 52
4 17 48
5 97 39
6 35 75
7 100 34
8 24 60
9 59 32
10 41 35
11 14 25
12 55 70
13 52 22
14 77 27
15 94 38
16 9 58
17 20 92
18 100 82
19 24 17
20 24 3
21 63 79
22 74 27
23 69 34
24 4 82
25 91 81
26 29 50
27 56 85
28 38 37
29 3 5
30 50 27
EOF
